
Gurobi 10.0.1 (linux64) logging started Sun Nov 26 16:03:28 2023

Set parameter LogFile to value "ArtificialInstance/ExperimentV2/S3T3K3/AdRo/gurobiDoRo59.txt"
Gurobi Optimizer version 10.0.1 build v10.0.1rc0 (linux64)

CPU model: AMD EPYC 7H12 64-Core Processor, instruction set [SSE2|AVX|AVX2]
Thread count: 128 physical cores, 128 logical processors, using up to 32 threads

Academic license 656792 - for non-commercial use only - registered to b.___@student.vu.nl
Optimize a model with 12923 rows, 12505 columns and 48379 nonzeros
Model fingerprint: 0xecbf5148
Variable types: 1 continuous, 12504 integer (12504 binary)
Coefficient statistics:
  Matrix range     [1e+00, 4e+01]
  Objective range  [1e+00, 2e+01]
  Bounds range     [1e+00, 1e+00]
  RHS range        [1e+00, 1e+00]
Presolve removed 5401 rows and 5219 columns
Presolve time: 0.17s
Presolved: 7522 rows, 7286 columns, 28022 nonzeros
Variable types: 1 continuous, 7285 integer (7285 binary)

Root relaxation: objective 9.204509e+01, 2033 iterations, 0.08 seconds (0.05 work units)

    Nodes    |    Current Node    |     Objective Bounds      |     Work
 Expl Unexpl |  Obj  Depth IntInf | Incumbent    BestBd   Gap | It/Node Time

     0     0   92.04509    0   32          -   92.04509      -     -    0s
H    0     0                      92.0450917   92.04509  0.00%     -    0s

Explored 1 nodes (3627 simplex iterations) in 0.38 seconds (0.27 work units)
Thread count was 32 (of 128 available processors)

Solution count 1: 92.0451 

Optimal solution found (tolerance 1.00e-04)
Best objective 9.204509168540e+01, best bound 9.204509168540e+01, gap 0.0000%
